c array.sh: path:     /data/qbf/qbf20/PCNF/trueque_query71_1344n.qdimacs
c array.sh: name:     trueque_query71_1344n
c array.sh: task:     114
c array.sh: host:     c3n22
c array.sh: uname:    Linux c3n22 4.15.0-135-generic #139-Ubuntu SMP Mon Jan 18 17:38:24 UTC 2021 x86_64 x86_64 x86_64 GNU/Linux
c array.sh: start:    Thu Feb 18 10:08:08 CET 2021
c array.sh: noturbo:  1
c array.sh: governor: 32 performance
c array.sh: tmp:      1%
c array.sh: unzipped: /tmp/local-unzipped-18838260-114-trueque_query71_1344n.cnf
*** qbfcert: using tmp directory:
*** qbfcert:   /tmp
trace-size: 21159
solving-res 20
proof-size: 5039
cert-size: 974
cert-header: aag 278 220 0 7 7
merged-header: p cnf 2765 6647
merged-size: 91078
c ---- [ banner ] ------------------------------------------------------------
c
c KISSAT SAT Solver
c Copyright (c) 2019-2020 Armin Biere JKU Linz
c 
c Version 1.0.3 59813addcacc4d6fb880ebdd63685600475aa940
c gcc (Ubuntu 7.5.0-3ubuntu1~18.04) 7.5.0 -W -Wall -O3 -DNEMBEDDED -DNDEBUG -DNMETRICS -DNSTATISTICS
c Sun Feb 14 23:58:54 CET 2021 Linux cluster3 4.15.0-135-generic x86_64
c
c ---- [ parsing ] -----------------------------------------------------------
c
c opened and reading DIMACS file:
c 
c   /tmp/qbfcert_merged_cnf10108.cnf
c 
c parsed 'p cnf 2765 6647' header
c closing input after reading 91078 bytes (89 KB)
c finished parsing after 0.00 seconds
c
c ---- [ solving ] -----------------------------------------------------------
c
c  seconds reductions redundant irredundant
c         MB   restarts    trail    variables
c          level  conflicts   glue      remaining
c
c *  0.00  3 0  0  0   1   0 0% 0 6642 345 12%
c {  0.00  3 0  0  0   1   0 0% 0 6642 345 12%
c }  0.00  3 0  0  0   1   0 0% 0 6642 345 12%
c 0  0.00  3 0  0  0   1   0 0% 0 6642 345 12%
c
c ---- [ result ] ------------------------------------------------------------
c
s UNSATISFIABLE
c
c ---- [ profiling ] ---------------------------------------------------------
c
c           0.00   89.03 %  parse
c           0.00    5.28 %  search
c           0.00    1.49 %  focused
c           0.00    0.00 %  simplify
c =============================================
c           0.00  100.00 %  total
c
c ---- [ statistics ] --------------------------------------------------------
c
c conflicts:                                1              345.42 per second
c decisions:                                0                0.00 per conflict
c propagations:                          2140           739206    per second
c
c ---- [ resources ] ---------------------------------------------------------
c
c maximum-resident-set-size:          2703360 bytes          3 MB
c process-time:                             0s               0.00 seconds
c
c ---- [ shutting down ] -----------------------------------------------------
c
c exit 20
*** qbfcert: VALID
c array.sh: end:      Thu Feb 18 10:08:08 CET 2021
